65
1 0 16
2 0 2
2 1 5
3 0 26
3 1 32
3 2 31
4 0 27
4 1 11
4 2 8
4 3 40
5 0 22
5 1 20
5 2 11
5 3 21
5 4 2
6 0 23
6 1 31
6 2 25
6 3 13
6 4 16
6 5 17
7 0 24
7 1 32
7 2 9
7 3 34
7 4 28
7 5 19
7 6 24
8 0 8
8 1 19
8 2 5
8 3 2
8 4 35
8 5 13
8 6 17
8 7 17
9 0 8
9 1 3
9 2 14
9 3 34
9 4 38
9 5 30
9 6 37
9 7 5
9 8 4
10 0 22
10 1 20
10 2 30
10 3 15
10 4 5
10 5 24
10 6 21
10 7 14
10 8 27
10 9 37
11 0 13
11 1 2
11 2 39
11 3 27
11 4 35
11 5 19
11 6 33
11 7 6
11 8 6
11 9 20
11 10 15
12 0 8
12 1 11
12 2 37
12 3 17
12 4 32
12 5 18
12 6 32
12 7 10
12 8 21
12 9 22
12 10 10
12 11 3
13 0 27
13 1 37
13 2 7
13 3 4
13 4 15
13 5 20
13 6 3
13 7 10
13 8 36
13 9 36
13 10 14
13 11 36
13 12 1
14 0 19
14 1 7
14 2 15
14 3 11
14 4 21
14 5 24
14 6 23
14 7 6
14 8 33
14 9 20
14 10 30
14 11 29
14 12 6
14 13 31
15 0 17
15 1 27
15 2 7
15 3 16
15 4 31
15 5 35
15 6 3
15 7 31
15 8 10
15 9 22
15 10 28
15 11 15
15 12 40
15 13 29
15 14 9
16 0 4
16 1 19
16 2 11
16 3 18
16 4 20
16 5 18
16 6 24
16 7 13
16 8 28
16 9 34
16 10 12
16 11 15
16 12 8
16 13 32
16 14 35
16 15 38
17 0 10
17 1 6
17 2 20
17 3 25
17 4 22
17 5 35
17 6 16
17 7 3
17 8 16
17 9 26
17 10 13
17 11 16
17 12 8
17 13 39
17 14 16
17 15 19
17 16 19
18 0 16
18 1 36
18 2 4
18 3 22
18 4 19
18 5 2
18 6 29
18 7 16
18 8 8
18 9 38
18 10 7
18 11 30
18 12 10
18 13 34
18 14 36
18 15 34
18 16 29
18 17 33
19 0 3
19 1 39
19 2 16
19 3 12
19 4 2
19 5 24
19 6 2
19 7 1
19 8 38
19 9 11
19 10 36
19 11 21
19 12 9
19 13 9
19 14 11
19 15 39
19 16 22
19 17 36
19 18 18
20 0 11
20 1 12
20 2 1
20 3 36
20 4 17
20 5 31
20 6 7
20 7 6
20 8 33
20 9 21
20 10 8
20 11 38
20 12 36
20 13 22
20 14 35
20 15 21
20 16 7
20 17 23
20 18 8
20 19 40
21 0 34
21 1 4
21 2 3
21 3 17
21 4 10
21 5 20
21 6 21
21 7 38
21 8 37
21 9 31
21 10 21
21 11 3
21 12 11
21 13 10
21 14 21
21 15 28
21 16 32
21 17 10
21 18 20
21 19 4
21 20 13
22 0 40
22 1 27
22 2 20
22 3 9
22 4 7
22 5 6
22 6 34
22 7 39
22 8 39
22 9 39
22 10 13
22 11 29
22 12 13
22 13 19
22 14 17
22 15 40
22 16 7
22 17 27
22 18 32
22 19 10
22 20 3
22 21 23
23 0 3
23 1 14
23 2 25
23 3 6
23 4 9
23 5 28
23 6 17
23 7 26
23 8 23
23 9 4
23 10 20
23 11 8
23 12 10
23 13 12
23 14 16
23 15 12
23 16 25
23 17 29
23 18 27
23 19 17
23 20 11
23 21 39
23 22 38
24 0 22
24 1 10
24 2 9
24 3 12
24 4 37
24 5 38
24 6 16
24 7 8
24 8 1
24 9 23
24 10 28
24 11 29
24 12 15
24 13 10
24 14 5
24 15 12
24 16 4
24 17 8
24 18 31
24 19 18
24 20 3
24 21 18
24 22 17
24 23 17
25 0 4
25 1 3
25 2 13
25 3 15
25 4 23
25 5 35
25 6 7
25 7 26
25 8 16
25 9 5
25 10 9
25 11 10
25 12 11
25 13 25
25 14 19
25 15 33
25 16 24
25 17 10
25 18 16
25 19 11
25 20 21
25 21 34
25 22 7
25 23 8
25 24 30
26 0 40
26 1 29
26 2 31
26 3 27
26 4 3
26 5 18
26 6 14
26 7 16
26 8 27
26 9 15
26 10 16
26 11 32
26 12 7
26 13 37
26 14 21
26 15 36
26 16 11
26 17 37
26 18 5
26 19 9
26 20 16
26 21 1
26 22 23
26 23 22
26 24 27
26 25 2
27 0 30
27 1 26
27 2 33
27 3 36
27 4 6
27 5 27
27 6 28
27 7 35
27 8 12
27 9 12
27 10 4
27 11 24
27 12 20
27 13 38
27 14 16
27 15 36
27 16 39
27 17 22
27 18 21
27 19 25
27 20 21
27 21 22
27 22 10
27 23 24
27 24 39
27 25 21
27 26 18
28 0 34
28 1 21
28 2 12
28 3 24
28 4 21
28 5 26
28 6 11
28 7 37
28 8 40
28 9 4
28 10 36
28 11 4
28 12 15
28 13 34
28 14 35
28 15 31
28 16 9
28 17 29
28 18 6
28 19 4
28 20 9
28 21 19
28 22 4
28 23 36
28 24 9
28 25 28
28 26 4
28 27 10
29 0 30
29 1 2
29 2 1
29 3 36
29 4 33
29 5 15
29 6 14
29 7 9
29 8 38
29 9 34
29 10 9
29 11 5
29 12 26
29 13 7
29 14 7
29 15 6
29 16 19
29 17 30
29 18 35
29 19 36
29 20 22
29 21 27
29 22 31
29 23 26
29 24 23
29 25 29
29 26 19
29 27 3
29 28 4
30 0 15
30 1 19
30 2 18
30 3 34
30 4 7
30 5 18
30 6 2
30 7 21
30 8 31
30 9 3
30 10 17
30 11 10
30 12 28
30 13 14
30 14 38
30 15 12
30 16 3
30 17 32
30 18 16
30 19 10
30 20 34
30 21 38
30 22 4
30 23 24
30 24 2
30 25 36
30 26 13
30 27 3
30 28 12
30 29 3
31 0 4
31 1 28
31 2 24
31 3 22
31 4 5
31 5 1
31 6 39
31 7 5
31 8 28
31 9 10
31 10 23
31 11 14
31 12 8
31 13 3
31 14 22
31 15 11
31 16 26
31 17 15
31 18 10
31 19 14
31 20 12
31 21 17
31 22 3
31 23 32
31 24 7
31 25 30
31 26 37
31 27 21
31 28 1
31 29 14
31 30 32
32 0 21
32 1 14
32 2 16
32 3 13
32 4 32
32 5 3
32 6 40
32 7 4
32 8 31
32 9 16
32 10 22
32 11 5
32 12 21
32 13 30
32 14 21
32 15 32
32 16 14
32 17 25
32 18 8
32 19 8
32 20 20
32 21 12
32 22 4
32 23 19
32 24 35
32 25 9
32 26 30
32 27 39
32 28 19
32 29 25
32 30 16
32 31 3
33 0 18
33 1 39
33 2 14
33 3 28
33 4 10
33 5 33
33 6 31
33 7 25
33 8 13
33 9 29
33 10 7
33 11 22
33 12 3
33 13 34
33 14 38
33 15 15
33 16 8
33 17 23
33 18 24
33 19 31
33 20 30
33 21 12
33 22 26
33 23 26
33 24 12
33 25 4
33 26 12
33 27 34
33 28 4
33 29 9
33 30 16
33 31 23
33 32 11
34 0 5
34 1 4
34 2 14
34 3 6
34 4 38
34 5 17
34 6 11
34 7 30
34 8 23
34 9 32
34 10 40
34 11 18
34 12 9
34 13 30
34 14 33
34 15 27
34 16 36
34 17 34
34 18 19
34 19 11
34 20 35
34 21 13
34 22 40
34 23 20
34 24 24
34 25 39
34 26 14
34 27 5
34 28 13
34 29 17
34 30 26
34 31 37
34 32 8
34 33 20
35 0 28
35 1 31
35 2 15
35 3 37
35 4 26
35 5 26
35 6 17
35 7 32
35 8 1
35 9 32
35 10 24
35 11 5
35 12 30
35 13 23
35 14 35
35 15 14
35 16 28
35 17 27
35 18 23
35 19 8
35 20 39
35 21 3
35 22 30
35 23 37
35 24 30
35 25 14
35 26 13
35 27 8
35 28 28
35 29 31
35 30 9
35 31 20
35 32 8
35 33 9
35 34 21
36 0 35
36 1 24
36 2 11
36 3 29
36 4 3
36 5 30
36 6 32
36 7 9
36 8 35
36 9 1
36 10 17
36 11 1
36 12 18
36 13 1
36 14 31
36 15 7
36 16 35
36 17 13
36 18 21
36 19 6
36 20 28
36 21 4
36 22 19
36 23 24
36 24 40
36 25 24
36 26 9
36 27 39
36 28 31
36 29 25
36 30 7
36 31 33
36 32 10
36 33 19
36 34 6
36 35 39
37 0 32
37 1 8
37 2 17
37 3 40
37 4 4
37 5 5
37 6 11
37 7 12
37 8 8
37 9 21
37 10 12
37 11 36
37 12 8
37 13 22
37 14 5
37 15 4
37 16 1
37 17 20
37 18 39
37 19 36
37 20 14
37 21 38
37 22 26
37 23 18
37 24 28
37 25 14
37 26 30
37 27 31
37 28 13
37 29 13
37 30 36
37 31 8
37 32 5
37 33 24
37 34 28
37 35 33
37 36 7
38 0 11
38 1 18
38 2 18
38 3 7
38 4 39
38 5 35
38 6 36
38 7 9
38 8 38
38 9 22
38 10 3
38 11 21
38 12 16
38 13 26
38 14 24
38 15 32
38 16 12
38 17 1
38 18 40
38 19 40
38 20 29
38 21 5
38 22 14
38 23 13
38 24 14
38 25 1
38 26 4
38 27 6
38 28 26
38 29 22
38 30 34
38 31 12
38 32 36
38 33 15
38 34 10
38 35 9
38 36 9
38 37 22
39 0 13
39 1 33
39 2 2
39 3 33
39 4 37
39 5 24
39 6 30
39 7 26
39 8 37
39 9 28
39 10 17
39 11 36
39 12 26
39 13 24
39 14 6
39 15 21
39 16 9
39 17 8
39 18 1
39 19 29
39 20 18
39 21 20
39 22 29
39 23 19
39 24 32
39 25 18
39 26 32
39 27 13
39 28 35
39 29 10
39 30 18
39 31 32
39 32 28
39 33 22
39 34 37
39 35 39
39 36 3
39 37 5
39 38 20
40 0 4
40 1 15
40 2 2
40 3 29
40 4 40
40 5 17
40 6 13
40 7 23
40 8 32
40 9 5
40 10 21
40 11 19
40 12 23
40 13 8
40 14 11
40 15 13
40 16 18
40 17 6
40 18 3
40 19 18
40 20 9
40 21 1
40 22 40
40 23 15
40 24 5
40 25 9
40 26 14
40 27 11
40 28 36
40 29 37
40 30 13
40 31 28
40 32 39
40 33 33
40 34 10
40 35 15
40 36 3
40 37 23
40 38 31
40 39 27
41 0 15
41 1 40
41 2 6
41 3 26
41 4 19
41 5 1
41 6 28
41 7 8
41 8 24
41 9 22
41 10 38
41 11 12
41 12 15
41 13 12
41 14 35
41 15 25
41 16 1
41 17 39
41 18 18
41 19 37
41 20 4
41 21 5
41 22 16
41 23 35
41 24 31
41 25 39
41 26 34
41 27 27
41 28 31
41 29 38
41 30 3
41 31 2
41 32 37
41 33 18
41 34 3
41 35 31
41 36 9
41 37 12
41 38 39
41 39 27
41 40 2
42 0 40
42 1 34
42 2 4
42 3 14
42 4 21
42 5 27
42 6 1
42 7 24
42 8 11
42 9 4
42 10 40
42 11 19
42 12 28
42 13 20
42 14 10
42 15 18
42 16 19
42 17 12
42 18 12
42 19 10
42 20 4
42 21 26
42 22 30
42 23 8
42 24 32
42 25 8
42 26 18
42 27 20
42 28 25
42 29 3
42 30 38
42 31 27
42 32 8
42 33 15
42 34 2
42 35 26
42 36 37
42 37 13
42 38 31
42 39 16
42 40 37
42 41 11
43 0 9
43 1 3
43 2 24
43 3 14
43 4 4
43 5 1
43 6 13
43 7 34
43 8 24
43 9 1
43 10 30
43 11 39
43 12 11
43 13 31
43 14 25
43 15 3
43 16 3
43 17 19
43 18 39
43 19 19
43 20 18
43 21 38
43 22 32
43 23 34
43 24 7
43 25 22
43 26 20
43 27 33
43 28 32
43 29 10
43 30 20
43 31 21
43 32 8
43 33 39
43 34 27
43 35 4
43 36 39
43 37 21
43 38 6
43 39 9
43 40 35
43 41 34
43 42 40
44 0 15
44 1 2
44 2 37
44 3 33
44 4 29
44 5 2
44 6 30
44 7 3
44 8 37
44 9 36
44 10 23
44 11 25
44 12 35
44 13 26
44 14 37
44 15 9
44 16 34
44 17 3
44 18 40
44 19 25
44 20 31
44 21 27
44 22 37
44 23 10
44 24 4
44 25 39
44 26 25
44 27 15
44 28 19
44 29 27
44 30 15
44 31 23
44 32 36
44 33 26
44 34 9
44 35 2
44 36 17
44 37 3
44 38 39
44 39 22
44 40 12
44 41 35
44 42 17
44 43 2
45 0 14
45 1 38
45 2 36
45 3 17
45 4 25
45 5 34
45 6 10
45 7 9
45 8 4
45 9 36
45 10 9
45 11 7
45 12 28
45 13 3
45 14 22
45 15 24
45 16 29
45 17 3
45 18 38
45 19 5
45 20 36
45 21 40
45 22 21
45 23 36
45 24 16
45 25 17
45 26 31
45 27 13
45 28 15
45 29 33
45 30 11
45 31 11
45 32 3
45 33 11
45 34 29
45 35 38
45 36 29
45 37 35
45 38 9
45 39 35
45 40 18
45 41 31
45 42 20
45 43 10
45 44 38
46 0 15
46 1 30
46 2 36
46 3 36
46 4 35
46 5 17
46 6 22
46 7 1
46 8 34
46 9 24
46 10 9
46 11 32
46 12 11
46 13 18
46 14 35
46 15 20
46 16 22
46 17 19
46 18 20
46 19 23
46 20 28
46 21 24
46 22 21
46 23 30
46 24 32
46 25 19
46 26 2
46 27 18
46 28 9
46 29 17
46 30 17
46 31 21
46 32 17
46 33 32
46 34 1
46 35 24
46 36 1
46 37 39
46 38 10
46 39 36
46 40 33
46 41 1
46 42 16
46 43 9
46 44 35
46 45 31
47 0 18
47 1 19
47 2 16
47 3 37
47 4 14
47 5 39
47 6 21
47 7 13
47 8 1
47 9 9
47 10 17
47 11 30
47 12 15
47 13 10
47 14 21
47 15 22
47 16 4
47 17 13
47 18 17
47 19 1
47 20 28
47 21 36
47 22 31
47 23 31
47 24 15
47 25 34
47 26 36
47 27 34
47 28 25
47 29 31
47 30 40
47 31 31
47 32 19
47 33 15
47 34 21
47 35 27
47 36 2
47 37 27
47 38 24
47 39 7
47 40 30
47 41 13
47 42 37
47 43 27
47 44 38
47 45 9
47 46 17
48 0 3
48 1 18
48 2 18
48 3 23
48 4 19
48 5 40
48 6 39
48 7 3
48 8 36
48 9 8
48 10 33
48 11 21
48 12 20
48 13 9
48 14 22
48 15 3
48 16 21
48 17 27
48 18 8
48 19 9
48 20 35
48 21 30
48 22 6
48 23 20
48 24 28
48 25 28
48 26 27
48 27 5
48 28 24
48 29 23
48 30 31
48 31 24
48 32 26
48 33 27
48 34 32
48 35 13
48 36 20
48 37 19
48 38 1
48 39 30
48 40 40
48 41 12
48 42 3
48 43 1
48 44 19
48 45 34
48 46 28
48 47 20
49 0 36
49 1 19
49 2 29
49 3 8
49 4 15
49 5 32
49 6 30
49 7 35
49 8 15
49 9 34
49 10 4
49 11 36
49 12 15
49 13 6
49 14 6
49 15 32
49 16 4
49 17 10
49 18 39
49 19 27
49 20 28
49 21 24
49 22 2
49 23 34
49 24 8
49 25 33
49 26 37
49 27 33
49 28 4
49 29 35
49 30 1
49 31 40
49 32 16
49 33 11
49 34 14
49 35 33
49 36 26
49 37 2
49 38 21
49 39 29
49 40 23
49 41 18
49 42 16
49 43 13
49 44 3
49 45 32
49 46 6
49 47 9
49 48 11
50 0 10
50 1 3
50 2 18
50 3 24
50 4 36
50 5 21
50 6 36
50 7 28
50 8 38
50 9 27
50 10 31
50 11 18
50 12 22
50 13 33
50 14 32
50 15 36
50 16 26
50 17 28
50 18 17
50 19 20
50 20 2
50 21 36
50 22 27
50 23 7
50 24 11
50 25 9
50 26 1
50 27 34
50 28 10
50 29 2
50 30 31
50 31 30
50 32 24
50 33 12
50 34 23
50 35 21
50 36 13
50 37 12
50 38 6
50 39 31
50 40 37
50 41 8
50 42 13
50 43 39
50 44 16
50 45 27
50 46 40
50 47 17
50 48 29
50 49 26
51 0 24
51 1 37
51 2 19
51 3 22
51 4 9
51 5 17
51 6 40
51 7 30
51 8 17
51 9 29
51 10 4
51 11 6
51 12 10
51 13 28
51 14 18
51 15 39
51 16 15
51 17 10
51 18 21
51 19 13
51 20 39
51 21 16
51 22 22
51 23 36
51 24 39
51 25 15
51 26 18
51 27 7
51 28 31
51 29 38
51 30 16
51 31 34
51 32 18
51 33 30
51 34 11
51 35 5
51 36 5
51 37 30
51 38 12
51 39 19
51 40 4
51 41 10
51 42 5
51 43 33
51 44 33
51 45 25
51 46 11
51 47 8
51 48 32
51 49 37
51 50 4
52 0 17
52 1 40
52 2 3
52 3 13
52 4 15
52 5 15
52 6 14
52 7 18
52 8 32
52 9 30
52 10 8
52 11 25
52 12 29
52 13 35
52 14 22
52 15 40
52 16 3
52 17 20
52 18 18
52 19 12
52 20 3
52 21 36
52 22 18
52 23 18
52 24 3
52 25 5
52 26 6
52 27 12
52 28 22
52 29 32
52 30 29
52 31 36
52 32 4
52 33 20
52 34 25
52 35 32
52 36 11
52 37 29
52 38 15
52 39 12
52 40 25
52 41 7
52 42 15
52 43 29
52 44 4
52 45 36
52 46 15
52 47 5
52 48 17
52 49 13
52 50 22
52 51 34
53 0 3
53 1 18
53 2 19
53 3 39
53 4 19
53 5 24
53 6 30
53 7 31
53 8 3
53 9 20
53 10 31
53 11 12
53 12 11
53 13 25
53 14 40
53 15 33
53 16 1
53 17 3
53 18 19
53 19 7
53 20 3
53 21 12
53 22 38
53 23 27
53 24 2
53 25 36
53 26 22
53 27 11
53 28 19
53 29 20
53 30 23
53 31 25
53 32 29
53 33 8
53 34 18
53 35 22
53 36 33
53 37 33
53 38 25
53 39 8
53 40 36
53 41 23
53 42 32
53 43 19
53 44 6
53 45 28
53 46 38
53 47 35
53 48 24
53 49 18
53 50 3
53 51 38
53 52 33
54 0 24
54 1 22
54 2 11
54 3 30
54 4 34
54 5 17
54 6 19
54 7 28
54 8 13
54 9 11
54 10 27
54 11 31
54 12 37
54 13 9
54 14 12
54 15 1
54 16 30
54 17 16
54 18 25
54 19 3
54 20 19
54 21 37
54 22 29
54 23 37
54 24 21
54 25 37
54 26 11
54 27 16
54 28 13
54 29 27
54 30 14
54 31 19
54 32 1
54 33 22
54 34 26
54 35 3
54 36 30
54 37 7
54 38 23
54 39 19
54 40 26
54 41 19
54 42 17
54 43 6
54 44 34
54 45 8
54 46 37
54 47 34
54 48 40
54 49 1
54 50 36
54 51 13
54 52 29
54 53 23
55 0 27
55 1 22
55 2 23
55 3 33
55 4 21
55 5 36
55 6 31
55 7 29
55 8 13
55 9 14
55 10 17
55 11 40
55 12 13
55 13 22
55 14 31
55 15 22
55 16 15
55 17 34
55 18 8
55 19 32
55 20 10
55 21 34
55 22 39
55 23 1
55 24 38
55 25 26
55 26 4
55 27 14
55 28 4
55 29 35
55 30 9
55 31 4
55 32 25
55 33 26
55 34 15
55 35 30
55 36 20
55 37 23
55 38 33
55 39 13
55 40 11
55 41 12
55 42 26
55 43 15
55 44 23
55 45 3
55 46 21
55 47 30
55 48 39
55 49 14
55 50 34
55 51 21
55 52 18
55 53 28
55 54 14
56 0 19
56 1 39
56 2 9
56 3 34
56 4 4
56 5 23
56 6 9
56 7 18
56 8 26
56 9 33
56 10 3
56 11 30
56 12 31
56 13 35
56 14 21
56 15 27
56 16 3
56 17 14
56 18 21
56 19 39
56 20 14
56 21 30
56 22 25
56 23 20
56 24 3
56 25 1
56 26 29
56 27 38
56 28 12
56 29 32
56 30 4
56 31 19
56 32 7
56 33 1
56 34 22
56 35 21
56 36 23
56 37 18
56 38 35
56 39 34
56 40 38
56 41 28
56 42 38
56 43 3
56 44 33
56 45 12
56 46 16
56 47 1
56 48 33
56 49 32
56 50 9
56 51 10
56 52 22
56 53 21
56 54 8
56 55 7
57 0 34
57 1 5
57 2 31
57 3 19
57 4 37
57 5 26
57 6 33
57 7 13
57 8 14
57 9 33
57 10 23
57 11 8
57 12 19
57 13 29
57 14 6
57 15 1
57 16 2
57 17 8
57 18 7
57 19 24
57 20 12
57 21 27
57 22 2
57 23 15
57 24 18
57 25 4
57 26 21
57 27 13
57 28 14
57 29 4
57 30 18
57 31 14
57 32 1
57 33 36
57 34 4
57 35 21
57 36 6
57 37 13
57 38 34
57 39 36
57 40 30
57 41 1
57 42 40
57 43 1
57 44 23
57 45 29
57 46 1
57 47 5
57 48 3
57 49 2
57 50 20
57 51 30
57 52 40
57 53 20
57 54 17
57 55 9
57 56 26
58 0 15
58 1 8
58 2 8
58 3 28
58 4 26
58 5 21
58 6 20
58 7 7
58 8 17
58 9 36
58 10 15
58 11 20
58 12 11
58 13 40
58 14 14
58 15 9
58 16 20
58 17 4
58 18 18
58 19 25
58 20 9
58 21 33
58 22 40
58 23 6
58 24 1
58 25 1
58 26 12
58 27 33
58 28 5
58 29 13
58 30 16
58 31 27
58 32 26
58 33 16
58 34 18
58 35 33
58 36 20
58 37 36
58 38 40
58 39 3
58 40 22
58 41 29
58 42 36
58 43 39
58 44 22
58 45 35
58 46 11
58 47 27
58 48 27
58 49 17
58 50 26
58 51 3
58 52 36
58 53 1
58 54 22
58 55 39
58 56 10
58 57 8
59 0 30
59 1 24
59 2 39
59 3 3
59 4 16
59 5 10
59 6 1
59 7 21
59 8 12
59 9 4
59 10 14
59 11 2
59 12 13
59 13 26
59 14 39
59 15 13
59 16 33
59 17 36
59 18 33
59 19 25
59 20 2
59 21 31
59 22 31
59 23 25
59 24 25
59 25 35
59 26 16
59 27 4
59 28 39
59 29 32
59 30 18
59 31 19
59 32 25
59 33 33
59 34 36
59 35 18
59 36 22
59 37 8
59 38 5
59 39 38
59 40 6
59 41 30
59 42 28
59 43 13
59 44 21
59 45 24
59 46 32
59 47 13
59 48 39
59 49 25
59 50 37
59 51 23
59 52 3
59 53 27
59 54 3
59 55 9
59 56 23
59 57 9
59 58 32
60 0 6
60 1 7
60 2 3
60 3 12
60 4 6
60 5 27
60 6 19
60 7 19
60 8 16
60 9 16
60 10 10
60 11 11
60 12 34
60 13 26
60 14 27
60 15 2
60 16 25
60 17 12
60 18 12
60 19 21
60 20 5
60 21 24
60 22 17
60 23 40
60 24 8
60 25 4
60 26 37
60 27 10
60 28 19
60 29 10
60 30 17
60 31 34
60 32 37
60 33 32
60 34 12
60 35 24
60 36 4
60 37 6
60 38 29
60 39 9
60 40 33
60 41 37
60 42 37
60 43 32
60 44 35
60 45 3
60 46 7
60 47 6
60 48 13
60 49 18
60 50 23
60 51 25
60 52 22
60 53 26
60 54 7
60 55 30
60 56 31
60 57 17
60 58 8
60 59 24
61 0 39
61 1 4
61 2 22
61 3 6
61 4 13
61 5 31
61 6 30
61 7 25
61 8 25
61 9 10
61 10 35
61 11 36
61 12 14
61 13 33
61 14 8
61 15 11
61 16 4
61 17 26
61 18 35
61 19 14
61 20 39
61 21 40
61 22 17
61 23 22
61 24 31
61 25 40
61 26 8
61 27 32
61 28 9
61 29 9
61 30 40
61 31 15
61 32 24
61 33 23
61 34 14
61 35 24
61 36 18
61 37 16
61 38 13
61 39 19
61 40 8
61 41 6
61 42 39
61 43 32
61 44 5
61 45 34
61 46 15
61 47 37
61 48 26
61 49 29
61 50 12
61 51 33
61 52 1
61 53 26
61 54 31
61 55 8
61 56 39
61 57 31
61 58 39
61 59 38
61 60 34
62 0 34
62 1 22
62 2 40
62 3 10
62 4 22
62 5 36
62 6 22
62 7 5
62 8 30
62 9 11
62 10 6
62 11 7
62 12 21
62 13 26
62 14 1
62 15 23
62 16 2
62 17 32
62 18 29
62 19 24
62 20 5
62 21 33
62 22 38
62 23 29
62 24 37
62 25 15
62 26 7
62 27 10
62 28 27
62 29 1
62 30 18
62 31 8
62 32 5
62 33 21
62 34 15
62 35 23
62 36 15
62 37 21
62 38 3
62 39 37
62 40 36
62 41 39
62 42 2
62 43 29
62 44 24
62 45 38
62 46 32
62 47 9
62 48 40
62 49 25
62 50 34
62 51 25
62 52 17
62 53 16
62 54 16
62 55 34
62 56 19
62 57 21
62 58 37
62 59 9
62 60 8
62 61 23
63 0 12
63 1 29
63 2 21
63 3 34
63 4 9
63 5 31
63 6 15
63 7 19
63 8 17
63 9 31
63 10 8
63 11 32
63 12 5
63 13 20
63 14 28
63 15 1
63 16 29
63 17 19
63 18 9
63 19 27
63 20 34
63 21 37
63 22 8
63 23 11
63 24 27
63 25 18
63 26 18
63 27 32
63 28 9
63 29 39
63 30 35
63 31 17
63 32 19
63 33 26
63 34 23
63 35 16
63 36 12
63 37 18
63 38 40
63 39 31
63 40 2
63 41 32
63 42 24
63 43 32
63 44 10
63 45 16
63 46 9
63 47 1
63 48 39
63 49 14
63 50 12
63 51 9
63 52 39
63 53 38
63 54 15
63 55 35
63 56 7
63 57 27
63 58 26
63 59 36
63 60 12
63 61 30
63 62 27
64 0 30
64 1 11
64 2 30
64 3 2
64 4 38
64 5 27
64 6 12
64 7 6
64 8 36
64 9 5
64 10 4
64 11 34
64 12 21
64 13 14
64 14 19
64 15 9
64 16 32
64 17 32
64 18 12
64 19 12
64 20 26
64 21 19
64 22 3
64 23 15
64 24 20
64 25 21
64 26 22
64 27 35
64 28 16
64 29 9
64 30 32
64 31 8
64 32 29
64 33 23
64 34 5
64 35 15
64 36 31
64 37 1
64 38 38
64 39 18
64 40 28
64 41 27
64 42 23
64 43 36
64 44 30
64 45 36
64 46 23
64 47 18
64 48 25
64 49 21
64 50 38
64 51 38
64 52 14
64 53 33
64 54 23
64 55 23
64 56 8
64 57 40
64 58 30
64 59 10
64 60 24
64 61 4
64 62 3
64 63 40
